c colouring generated by benchmark framework
p edge 64 728
v 1 2
v 2 1
v 3 5
v 4 8
v 5 6
v 6 3
v 7 4
v 8 7
v 9 8
v 10 9
v 11 0
v 12 7
v 13 1
v 14 5
v 15 6
v 16 2
v 17 7
v 18 3
v 19 8
v 20 5
v 21 2
v 22 0
v 23 9
v 24 1
v 25 1
v 26 4
v 27 7
v 28 6
v 29 3
v 30 8
v 31 2
v 32 0
v 33 9
v 34 8
v 35 1
v 36 2
v 37 0
v 38 6
v 39 3
v 40 4
v 41 0
v 42 7
v 43 9
v 44 3
v 45 5
v 46 4
v 47 8
v 48 6
v 49 3
v 50 5
v 51 4
v 52 0
v 53 8
v 54 1
v 55 7
v 56 9
v 57 4
v 58 6
v 59 3
v 60 1
v 61 7
v 62 9
v 63 0
v 64 5
